WARNING: for repeatability, setting FPU to use double precision
============================[ Problem Statistics ]=============================
|                                                                             |
|  Number of variables:            50                                         |
|  Number of clauses:             218                                         |
|  Parse time:                   0.00 s                                       |
|                                                                             |
============================[ Search Statistics ]==============================
| Conflicts |          ORIGINAL         |          LEARNT          | Progress |
|           |    Vars  Clauses Literals |    Limit  Clauses Lit/Cl |          |
===============================================================================
|       100 |      49      214      642 |       79       43      5 |  2.086 % |
===============================================================================
restarts              : 2
conflicts             : 112            (68712 /sec)
decisions             : 130            (0.00 % random) (79755 /sec)
propagations          : 1585           (972393 /sec)
conflict literals     : 508            (15.89 % deleted)
Memory used           : 20.00 MB
CPU time              : 0.00163 s

UNSATISFIABLE
